CMPL model generation - running

CMPL version: 1.11.0
Authors: Thomas Schleiff, Mike Steglich
Distributed under the GPLv3 

create model instance ...
write model instance ...
CMPL model generation - finished

Solver - running


Welcome to IBM(R) ILOG(R) CPLEX(R) Interactive Optimizer 12.7.1.0
  with Simplex, Mixed Integer & Barrier Optimizers
5725-A06 5725-A29 5724-Y48 5724-Y49 5724-Y54 5724-Y55 5655-Y21
Copyright IBM Corp. 1988, 2017.  All Rights Reserved.

Type 'help' for a list of available commands.
Type 'help' followed by a command name for more
information on commands.

CPLEX> Specified objective sense: MINIMIZE
Selected objective  name:  line[1]
Selected RHS        name:  RHS
Selected bound      name:  BOUND
Problem '/tmp/cmpl.T24937.mps' read.
Read time = 0.09 sec. (10.22 ticks)
CPLEX> CPXPARAM_Read_APIEncoding                        "UTF-8"
Tried aggregator 3 times.
MIP Presolve eliminated 22986 rows and 35548 columns.
MIP Presolve modified 589 coefficients.
Aggregator did 1751 substitutions.
Reduced MIP has 3185 rows, 5156 columns, and 15282 nonzeros.
Reduced MIP has 4946 binaries, 0 generals, 0 SOSs, and 0 indicators.
Presolve time = 0.08 sec. (55.81 ticks)
Found incumbent of value 4696.523169 after 0.16 sec. (112.78 ticks)
Probing time = 0.01 sec. (2.76 ticks)
Tried aggregator 1 time.
MIP Presolve eliminated 0 rows and 59 columns.
Reduced MIP has 3185 rows, 5097 columns, and 15164 nonzeros.
Reduced MIP has 5097 binaries, 0 generals, 0 SOSs, and 0 indicators.
Presolve time = 0.02 sec. (14.07 ticks)
Probing time = 0.01 sec. (2.97 ticks)
Clique table members: 4426.
MIP emphasis: balance optimality and feasibility.
MIP search method: dynamic search.
Parallel mode: none, using 1 thread.
Root relaxation solution time = 0.02 sec. (20.93 ticks)

        Nodes                                         Cuts/
   Node  Left     Objective  IInf  Best Integer    Best Bound    ItCnt     Gap

*     0+    0                         4696.5232        0.0000           100.00%
*     0     0      integral     0     2157.1154     2157.1154     1142    0.00%
Elapsed time = 0.23 sec. (163.92 ticks, tree = 0.00 MB, solutions = 2)

Root node processing (before b&c):
  Real time             =    0.24 sec. (165.49 ticks)
Sequential b&c:
  Real time             =    0.00 sec. (0.00 ticks)
                          ------------
Total (root+branch&cut) =    0.24 sec. (165.49 ticks)

Solution pool: 2 solutions saved.

MIP - Integer optimal solution:  Objective =  2.1571153770e+03
Solution time =    0.24 sec.  Iterations = 1142  Nodes = 0
Deterministic time = 165.61 ticks  (700.15 ticks/sec)

CPLEX> Incumbent solution written to file '/tmp/cmpl.T24937.gsol'.
CPLEX> 
CMPL: Time used for model generation: 0 seconds
CMPL: Time used for solving the model: 2 seconds


Solution written to ASCII file: results/output_generated_conf_1/2016-05-02-5/fair-nonlinear.sol

Solver - finished
